Minimize
	value: tt

Subject to
tt + 2000 s_1_1 > 0
tt - t_1_1 - 2002.500000 s_1_1 + 2.500000 s_1_6 > -1969.658644
tt + 2000 s_2_1 > 0
tt - t_2_1 - 2005.000000 s_2_1 + 5.000000 s_2_6 > -1957.757475
tt + 2000 s_1_2 > 0
tt - t_1_2 - 2002.500000 s_1_2 + 2.500000 s_1_7 > -1965.017900
tt + 2000 s_2_2 > 0
tt - t_2_2 - 2005.000000 s_2_2 + 5.000000 s_2_7 > -1951.332589
tt + 2000 s_1_3 > 0
tt - t_1_3 - 2002.500000 s_1_3 + 2.500000 s_1_7 > -1958.171289
tt + 2000 s_2_3 > 0
tt - t_2_3 - 2005.000000 s_2_3 + 5.000000 s_2_7 > -1931.066627
tt + 2000 s_1_4 > 0
tt - t_1_4 - 2033.642944 s_1_4 + 33.642944 s_1_7 > -1973.519633
tt + 2000 s_2_4 > 0
tt - t_2_4 - 2067.285889 s_2_4 + 67.285889 s_2_7 > -1962.019844
tt + 2000 s_1_5 > 0
tt - t_1_5 - 2010.000000 s_1_5 + 10.000000 s_1_7 > -1979.142067
tt + 2000 s_2_5 > 0
tt - t_2_5 - 2020.000000 s_2_5 + 20.000000 s_2_7 > -1965.839431
tt + 2000 s_1_6 > 0
tt - t_1_6 - 2000.000000 s_1_6 > -1940.442644
tt + 2000 s_2_6 > 0
tt - t_2_6 - 2000.000000 s_2_6 > -1930.030300
tt + 2000 s_1_7 > 0
tt - t_1_7 - 2000.000000 s_1_7 > -1940.286400
tt + 2000 s_2_7 > 0
tt - t_2_7 - 2000.000000 s_2_7 > -1930.617200
tt + 2000 s_1_8 > 0
tt - t_1_8 - 2286.429444 s_1_8 + 286.429444 s_1_3 > -1995.647100
tt + 2000 s_2_8 > 0
tt - t_2_8 - 2572.858889 s_2_8 + 572.858889 s_2_3 > -1944.409400
s_1_1 + s_2_1  = 1
s_1_2 + s_2_2  = 1
s_1_3 + s_2_3  = 1
s_1_4 + s_2_4  = 1
s_1_5 + s_2_5  = 1
s_1_6 + s_2_6  = 1
s_1_7 + s_2_7  = 1
s_1_8 + s_2_8  = 1
t_1_1 - t_1_2 + 2000.000000 u_1_1_2 - 2.500000 s_1_2 + 2.500000 s_1_7 > 34.982100
t_1_2 - t_1_1 - 2000.000000 u_1_1_2 > -1969.658644
t_2_1 - t_2_2 + 2000.000000 u_2_1_2 - 5.000000 s_2_2 + 5.000000 s_2_7 > 48.667411
t_2_2 - t_2_1 - 2000.000000 u_2_1_2 > -1957.757475
t_1_1 - t_1_3 + 2000.000000 u_1_1_3 - 2.500000 s_1_3 + 2.500000 s_1_7 > 41.828711
t_1_3 - t_1_1 - 2000.000000 u_1_1_3 > -1969.658644
t_2_1 - t_2_3 + 2000.000000 u_2_1_3 - 5.000000 s_2_3 + 5.000000 s_2_7 > 68.933373
t_2_3 - t_2_1 - 2000.000000 u_2_1_3 > -1957.757475
t_1_1 - t_1_4 + 2000.000000 u_1_1_4 - 16.821472 s_1_4 + 16.821472 s_1_7 > 26.480367
t_1_4 - t_1_1 - 2000.000000 u_1_1_4 > -1969.658644
t_2_1 - t_2_4 + 2000.000000 u_2_1_4 - 33.642944 s_2_4 + 33.642944 s_2_7 > 37.980156
t_2_4 - t_2_1 - 2000.000000 u_2_1_4 > -1957.757475
t_1_1 - t_1_5 + 2000.000000 u_1_1_5 - 5.000000 s_1_5 + 5.000000 s_1_7 > 20.857933
t_1_5 - t_1_1 - 2000.000000 u_1_1_5 > -1969.658644
t_2_1 - t_2_5 + 2000.000000 u_2_1_5 - 10.000000 s_2_5 + 10.000000 s_2_7 > 34.160569
t_2_5 - t_2_1 - 2000.000000 u_2_1_5 > -1957.757475
t_1_1 - t_1_6 - 2000.000000 s_1_6 > -1904.638964
t_1_1 - t_2_6 - 2000.000000 s_2_6 > -1858.422939
t_2_1 - t_1_6 - 2000.000000 s_1_6 > -1904.638964
t_2_1 - t_2_6 - 2000.000000 s_2_6 > -1858.422939
t_1_1 - t_1_7 + 2000.000000 u_1_1_7 > 59.713600
t_1_7 - t_1_1 - 2000.000000 u_1_1_7 > -1969.658644
t_2_1 - t_2_7 + 2000.000000 u_2_1_7 > 69.382800
t_2_7 - t_2_1 - 2000.000000 u_2_1_7 > -1957.757475
t_1_8 - t_1_1 - 2000.000000 s_1_1 > -1967.158644
t_1_8 - t_2_1 - 2000.000000 s_2_1 > -1952.757475
t_2_8 - t_1_1 - 2000.000000 s_1_1 > -1967.158644
t_2_8 - t_2_1 - 2000.000000 s_2_1 > -1952.757475
t_1_2 - t_1_1 + 2000.000000 u_1_2_1 - 2.500000 s_1_1 + 2.500000 s_1_6 > 30.341356
t_1_1 - t_1_2 - 2000.000000 u_1_2_1 > -1965.017900
t_2_2 - t_2_1 + 2000.000000 u_2_2_1 - 5.000000 s_2_1 + 5.000000 s_2_6 > 42.242525
t_2_1 - t_2_2 - 2000.000000 u_2_2_1 > -1951.332589
t_1_2 - t_1_3 + 2000.000000 u_1_2_3 - 2.500000 s_1_3 + 2.500000 s_1_7 > 41.828711
t_1_3 - t_1_2 - 2000.000000 u_1_2_3 > -1965.017900
t_2_2 - t_2_3 + 2000.000000 u_2_2_3 - 5.000000 s_2_3 + 5.000000 s_2_7 > 68.933373
t_2_3 - t_2_2 - 2000.000000 u_2_2_3 > -1951.332589
t_1_2 - t_1_4 + 2000.000000 u_1_2_4 - 16.821472 s_1_4 + 16.821472 s_1_7 > 26.480367
t_1_4 - t_1_2 - 2000.000000 u_1_2_4 > -1965.017900
t_2_2 - t_2_4 + 2000.000000 u_2_2_4 - 33.642944 s_2_4 + 33.642944 s_2_7 > 37.980156
t_2_4 - t_2_2 - 2000.000000 u_2_2_4 > -1951.332589
t_1_2 - t_1_5 + 2000.000000 u_1_2_5 - 5.000000 s_1_5 + 5.000000 s_1_7 > 20.857933
t_1_5 - t_1_2 - 2000.000000 u_1_2_5 > -1965.017900
t_2_2 - t_2_5 + 2000.000000 u_2_2_5 - 10.000000 s_2_5 + 10.000000 s_2_7 > 34.160569
t_2_5 - t_2_2 - 2000.000000 u_2_2_5 > -1951.332589
t_1_2 - t_1_6 + 2000.000000 u_1_2_6 > 59.557356
t_1_6 - t_1_2 - 2000.000000 u_1_2_6 > -1965.017900
t_2_2 - t_2_6 + 2000.000000 u_2_2_6 > 69.969700
t_2_6 - t_2_2 - 2000.000000 u_2_2_6 > -1951.332589
t_1_2 - t_1_7 - 2000.000000 s_1_7 > -1904.482719
t_1_2 - t_2_7 - 2000.000000 s_2_7 > -1859.009839
t_2_2 - t_1_7 - 2000.000000 s_1_7 > -1904.482719
t_2_2 - t_2_7 - 2000.000000 s_2_7 > -1859.009839
t_1_8 - t_1_2 - 2000.000000 s_1_2 > -1962.517900
t_1_8 - t_2_2 - 2000.000000 s_2_2 > -1946.332589
t_2_8 - t_1_2 - 2000.000000 s_1_2 > -1962.517900
t_2_8 - t_2_2 - 2000.000000 s_2_2 > -1946.332589
t_1_3 - t_1_1 + 2000.000000 u_1_3_1 - 2.500000 s_1_1 + 2.500000 s_1_6 > 30.341356
t_1_1 - t_1_3 - 2000.000000 u_1_3_1 > -1958.171289
t_2_3 - t_2_1 + 2000.000000 u_2_3_1 - 5.000000 s_2_1 + 5.000000 s_2_6 > 42.242525
t_2_1 - t_2_3 - 2000.000000 u_2_3_1 > -1931.066627
t_1_3 - t_1_2 + 2000.000000 u_1_3_2 - 2.500000 s_1_2 + 2.500000 s_1_7 > 34.982100
t_1_2 - t_1_3 - 2000.000000 u_1_3_2 > -1958.171289
t_2_3 - t_2_2 + 2000.000000 u_2_3_2 - 5.000000 s_2_2 + 5.000000 s_2_7 > 48.667411
t_2_2 - t_2_3 - 2000.000000 u_2_3_2 > -1931.066627
t_1_4 - t_1_3 - 2000.000000 s_1_3 > -1955.671289
t_1_4 - t_2_3 - 2000.000000 s_2_3 > -1926.066627
t_2_4 - t_1_3 - 2000.000000 s_1_3 > -1955.671289
t_2_4 - t_2_3 - 2000.000000 s_2_3 > -1926.066627
t_1_3 - t_1_5 + 2000.000000 u_1_3_5 - 5.000000 s_1_5 + 5.000000 s_1_7 > 20.857933
t_1_5 - t_1_3 - 2000.000000 u_1_3_5 > -1958.171289
t_2_3 - t_2_5 + 2000.000000 u_2_3_5 - 10.000000 s_2_5 + 10.000000 s_2_7 > 34.160569
t_2_5 - t_2_3 - 2000.000000 u_2_3_5 > -1931.066627
t_1_3 - t_1_6 + 2000.000000 u_1_3_6 > 59.557356
t_1_6 - t_1_3 - 2000.000000 u_1_3_6 > -1958.171289
t_2_3 - t_2_6 + 2000.000000 u_2_3_6 > 69.969700
t_2_6 - t_2_3 - 2000.000000 u_2_3_6 > -1931.066627
t_1_3 - t_1_7 - 2000.000000 s_1_7 > -1904.482719
t_1_3 - t_2_7 - 2000.000000 s_2_7 > -1859.009839
t_2_3 - t_1_7 - 2000.000000 s_1_7 > -1904.482719
t_2_3 - t_2_7 - 2000.000000 s_2_7 > -1859.009839
t_1_8 - t_1_3 - 2000.000000 s_1_3 > -1955.671289
t_1_8 - t_2_3 - 2000.000000 s_2_3 > -1926.066627
t_2_8 - t_1_3 - 2000.000000 s_1_3 > -1955.671289
t_2_8 - t_2_3 - 2000.000000 s_2_3 > -1926.066627
t_1_4 - t_1_1 + 2000.000000 u_1_4_1 - 2.500000 s_1_1 + 2.500000 s_1_6 > 30.341356
t_1_1 - t_1_4 - 2000.000000 u_1_4_1 > -1973.519633
t_2_4 - t_2_1 + 2000.000000 u_2_4_1 - 5.000000 s_2_1 + 5.000000 s_2_6 > 42.242525
t_2_1 - t_2_4 - 2000.000000 u_2_4_1 > -1962.019844
t_1_4 - t_1_2 + 2000.000000 u_1_4_2 - 2.500000 s_1_2 + 2.500000 s_1_7 > 34.982100
t_1_2 - t_1_4 - 2000.000000 u_1_4_2 > -1973.519633
t_2_4 - t_2_2 + 2000.000000 u_2_4_2 - 5.000000 s_2_2 + 5.000000 s_2_7 > 48.667411
t_2_2 - t_2_4 - 2000.000000 u_2_4_2 > -1962.019844
t_1_4 - t_1_3 - 2000.000000 s_1_3 > -1955.671289
t_1_4 - t_2_3 - 2000.000000 s_2_3 > -1926.066627
t_2_4 - t_1_3 - 2000.000000 s_1_3 > -1955.671289
t_2_4 - t_2_3 - 2000.000000 s_2_3 > -1926.066627
t_1_4 - t_1_5 + 2000.000000 u_1_4_5 - 5.000000 s_1_5 + 5.000000 s_1_7 > 20.857933
t_1_5 - t_1_4 - 2000.000000 u_1_4_5 > -1973.519633
t_2_4 - t_2_5 + 2000.000000 u_2_4_5 - 10.000000 s_2_5 + 10.000000 s_2_7 > 34.160569
t_2_5 - t_2_4 - 2000.000000 u_2_4_5 > -1962.019844
t_1_4 - t_1_6 + 2000.000000 u_1_4_6 > 59.557356
t_1_6 - t_1_4 - 2000.000000 u_1_4_6 > -1973.519633
t_2_4 - t_2_6 + 2000.000000 u_2_4_6 > 69.969700
t_2_6 - t_2_4 - 2000.000000 u_2_4_6 > -1962.019844
t_1_4 - t_1_7 - 2000.000000 s_1_7 > -1904.482719
t_1_4 - t_2_7 - 2000.000000 s_2_7 > -1859.009839
t_2_4 - t_1_7 - 2000.000000 s_1_7 > -1904.482719
t_2_4 - t_2_7 - 2000.000000 s_2_7 > -1859.009839
t_1_8 - t_1_4 - 2000.000000 s_1_4 > -1956.698161
t_1_8 - t_2_4 - 2000.000000 s_2_4 > -1928.376900
t_2_8 - t_1_4 - 2000.000000 s_1_4 > -1956.698161
t_2_8 - t_2_4 - 2000.000000 s_2_4 > -1928.376900
t_1_5 - t_1_1 + 2000.000000 u_1_5_1 - 2.500000 s_1_1 + 2.500000 s_1_6 > 30.341356
t_1_1 - t_1_5 - 2000.000000 u_1_5_1 > -1979.142067
t_2_5 - t_2_1 + 2000.000000 u_2_5_1 - 5.000000 s_2_1 + 5.000000 s_2_6 > 42.242525
t_2_1 - t_2_5 - 2000.000000 u_2_5_1 > -1965.839431
t_1_5 - t_1_2 + 2000.000000 u_1_5_2 - 2.500000 s_1_2 + 2.500000 s_1_7 > 34.982100
t_1_2 - t_1_5 - 2000.000000 u_1_5_2 > -1979.142067
t_2_5 - t_2_2 + 2000.000000 u_2_5_2 - 5.000000 s_2_2 + 5.000000 s_2_7 > 48.667411
t_2_2 - t_2_5 - 2000.000000 u_2_5_2 > -1965.839431
t_1_5 - t_1_3 + 2000.000000 u_1_5_3 - 2.500000 s_1_3 + 2.500000 s_1_7 > 41.828711
t_1_3 - t_1_5 - 2000.000000 u_1_5_3 > -1979.142067
t_2_5 - t_2_3 + 2000.000000 u_2_5_3 - 5.000000 s_2_3 + 5.000000 s_2_7 > 68.933373
t_2_3 - t_2_5 - 2000.000000 u_2_5_3 > -1965.839431
t_1_5 - t_1_4 + 2000.000000 u_1_5_4 - 16.821472 s_1_4 + 16.821472 s_1_7 > 26.480367
t_1_4 - t_1_5 - 2000.000000 u_1_5_4 > -1979.142067
t_2_5 - t_2_4 + 2000.000000 u_2_5_4 - 33.642944 s_2_4 + 33.642944 s_2_7 > 37.980156
t_2_4 - t_2_5 - 2000.000000 u_2_5_4 > -1965.839431
t_1_5 - t_1_6 - 2000.000000 s_1_6 > -1904.638964
t_1_5 - t_2_6 - 2000.000000 s_2_6 > -1858.422939
t_2_5 - t_1_6 - 2000.000000 s_1_6 > -1904.638964
t_2_5 - t_2_6 - 2000.000000 s_2_6 > -1858.422939
t_1_5 - t_1_7 - 2000.000000 s_1_7 > -1904.482719
t_1_5 - t_2_7 - 2000.000000 s_2_7 > -1859.009839
t_2_5 - t_1_7 - 2000.000000 s_1_7 > -1904.482719
t_2_5 - t_2_7 - 2000.000000 s_2_7 > -1859.009839
t_1_8 - t_1_5 - 2000.000000 s_1_5 > -1974.142067
t_1_8 - t_2_5 - 2000.000000 s_2_5 > -1955.839431
t_2_8 - t_1_5 - 2000.000000 s_1_5 > -1974.142067
t_2_8 - t_2_5 - 2000.000000 s_2_5 > -1955.839431
t_1_1 - t_1_6 - 2000.000000 s_1_6 > -1904.638964
t_1_1 - t_2_6 - 2000.000000 s_2_6 > -1858.422939
t_2_1 - t_1_6 - 2000.000000 s_1_6 > -1904.638964
t_2_1 - t_2_6 - 2000.000000 s_2_6 > -1858.422939
t_1_6 - t_1_2 + 2000.000000 u_1_6_2 - 2.500000 s_1_2 + 2.500000 s_1_7 > 34.982100
t_1_2 - t_1_6 - 2000.000000 u_1_6_2 > -1940.442644
t_2_6 - t_2_2 + 2000.000000 u_2_6_2 - 5.000000 s_2_2 + 5.000000 s_2_7 > 48.667411
t_2_2 - t_2_6 - 2000.000000 u_2_6_2 > -1930.030300
t_1_6 - t_1_3 + 2000.000000 u_1_6_3 - 2.500000 s_1_3 + 2.500000 s_1_7 > 41.828711
t_1_3 - t_1_6 - 2000.000000 u_1_6_3 > -1940.442644
t_2_6 - t_2_3 + 2000.000000 u_2_6_3 - 5.000000 s_2_3 + 5.000000 s_2_7 > 68.933373
t_2_3 - t_2_6 - 2000.000000 u_2_6_3 > -1930.030300
t_1_6 - t_1_4 + 2000.000000 u_1_6_4 - 16.821472 s_1_4 + 16.821472 s_1_7 > 26.480367
t_1_4 - t_1_6 - 2000.000000 u_1_6_4 > -1940.442644
t_2_6 - t_2_4 + 2000.000000 u_2_6_4 - 33.642944 s_2_4 + 33.642944 s_2_7 > 37.980156
t_2_4 - t_2_6 - 2000.000000 u_2_6_4 > -1930.030300
t_1_5 - t_1_6 - 2000.000000 s_1_6 > -1904.638964
t_1_5 - t_2_6 - 2000.000000 s_2_6 > -1858.422939
t_2_5 - t_1_6 - 2000.000000 s_1_6 > -1904.638964
t_2_5 - t_2_6 - 2000.000000 s_2_6 > -1858.422939
t_1_6 - t_1_7 + 2000.000000 u_1_6_7 > 59.713600
t_1_7 - t_1_6 - 2000.000000 u_1_6_7 > -1940.442644
t_2_6 - t_2_7 + 2000.000000 u_2_6_7 > 69.382800
t_2_7 - t_2_6 - 2000.000000 u_2_6_7 > -1930.030300
t_1_7 - t_1_1 + 2000.000000 u_1_7_1 - 2.500000 s_1_1 + 2.500000 s_1_6 > 30.341356
t_1_1 - t_1_7 - 2000.000000 u_1_7_1 > -1940.286400
t_2_7 - t_2_1 + 2000.000000 u_2_7_1 - 5.000000 s_2_1 + 5.000000 s_2_6 > 42.242525
t_2_1 - t_2_7 - 2000.000000 u_2_7_1 > -1930.617200
t_1_2 - t_1_7 - 2000.000000 s_1_7 > -1904.482719
t_1_2 - t_2_7 - 2000.000000 s_2_7 > -1859.009839
t_2_2 - t_1_7 - 2000.000000 s_1_7 > -1904.482719
t_2_2 - t_2_7 - 2000.000000 s_2_7 > -1859.009839
t_1_3 - t_1_7 - 2000.000000 s_1_7 > -1904.482719
t_1_3 - t_2_7 - 2000.000000 s_2_7 > -1859.009839
t_2_3 - t_1_7 - 2000.000000 s_1_7 > -1904.482719
t_2_3 - t_2_7 - 2000.000000 s_2_7 > -1859.009839
t_1_4 - t_1_7 - 2000.000000 s_1_7 > -1904.482719
t_1_4 - t_2_7 - 2000.000000 s_2_7 > -1859.009839
t_2_4 - t_1_7 - 2000.000000 s_1_7 > -1904.482719
t_2_4 - t_2_7 - 2000.000000 s_2_7 > -1859.009839
t_1_5 - t_1_7 - 2000.000000 s_1_7 > -1904.482719
t_1_5 - t_2_7 - 2000.000000 s_2_7 > -1859.009839
t_2_5 - t_1_7 - 2000.000000 s_1_7 > -1904.482719
t_2_5 - t_2_7 - 2000.000000 s_2_7 > -1859.009839
t_1_7 - t_1_6 + 2000.000000 u_1_7_6 > 59.557356
t_1_6 - t_1_7 - 2000.000000 u_1_7_6 > -1940.286400
t_2_7 - t_2_6 + 2000.000000 u_2_7_6 > 69.969700
t_2_6 - t_2_7 - 2000.000000 u_2_7_6 > -1930.617200
t_1_8 - t_1_1 - 2000.000000 s_1_1 > -1967.158644
t_1_8 - t_2_1 - 2000.000000 s_2_1 > -1952.757475
t_2_8 - t_1_1 - 2000.000000 s_1_1 > -1967.158644
t_2_8 - t_2_1 - 2000.000000 s_2_1 > -1952.757475
t_1_8 - t_1_2 - 2000.000000 s_1_2 > -1962.517900
t_1_8 - t_2_2 - 2000.000000 s_2_2 > -1946.332589
t_2_8 - t_1_2 - 2000.000000 s_1_2 > -1962.517900
t_2_8 - t_2_2 - 2000.000000 s_2_2 > -1946.332589
t_1_8 - t_1_3 - 2000.000000 s_1_3 > -1955.671289
t_1_8 - t_2_3 - 2000.000000 s_2_3 > -1926.066627
t_2_8 - t_1_3 - 2000.000000 s_1_3 > -1955.671289
t_2_8 - t_2_3 - 2000.000000 s_2_3 > -1926.066627
t_1_8 - t_1_4 - 2000.000000 s_1_4 > -1956.698161
t_1_8 - t_2_4 - 2000.000000 s_2_4 > -1928.376900
t_2_8 - t_1_4 - 2000.000000 s_1_4 > -1956.698161
t_2_8 - t_2_4 - 2000.000000 s_2_4 > -1928.376900
t_1_8 - t_1_5 - 2000.000000 s_1_5 > -1974.142067
t_1_8 - t_2_5 - 2000.000000 s_2_5 > -1955.839431
t_2_8 - t_1_5 - 2000.000000 s_1_5 > -1974.142067
t_2_8 - t_2_5 - 2000.000000 s_2_5 > -1955.839431
Binary
s_1_1
s_2_1
s_1_2
s_2_2
s_1_3
s_2_3
s_1_4
s_2_4
s_1_5
s_2_5
s_1_6
s_2_6
s_1_7
s_2_7
s_1_8
s_2_8
u_1_1_2
u_2_1_2
u_1_1_3
u_2_1_3
u_1_1_4
u_2_1_4
u_1_1_5
u_2_1_5
u_1_1_7
u_2_1_7
u_1_2_1
u_2_2_1
u_1_2_3
u_2_2_3
u_1_2_4
u_2_2_4
u_1_2_5
u_2_2_5
u_1_2_6
u_2_2_6
u_1_3_1
u_2_3_1
u_1_3_2
u_2_3_2
u_1_3_5
u_2_3_5
u_1_3_6
u_2_3_6
u_1_4_1
u_2_4_1
u_1_4_2
u_2_4_2
u_1_4_5
u_2_4_5
u_1_4_6
u_2_4_6
u_1_5_1
u_2_5_1
u_1_5_2
u_2_5_2
u_1_5_3
u_2_5_3
u_1_5_4
u_2_5_4
u_1_6_2
u_2_6_2
u_1_6_3
u_2_6_3
u_1_6_4
u_2_6_4
u_1_6_7
u_2_6_7
u_1_7_1
u_2_7_1
u_1_7_6
u_2_7_6

End
